(set-info :smt-lib-version 2.6)
(set-logic QF_S)
(set-info :source |
Generated by: Shaoke Cui
Generated on: 2025-04-10
Application: Using String Solvers to solve string matching problems
Target solver: Z3, Z3alpha, Z3-noodler
Benchmarks for string matching problem with wildcards, which needs to determine whether two strings containing two wildcards can match.
Use re.allchar and (re.* re.allchar) to represent wildcards.
Determine whether the two strings match by judging whether the result of re.inter is re.none.
|)
(set-info :license "https://creativecommons.org/licenses/by/4.0/")
(set-info :category "crafted")
(set-info :status unknown)
(assert (= re.none (re.inter  (re.++ (str.to_re "s") re.allchar (str.to_re "i") re.allchar re.allchar (str.to_re "q") re.allchar (str.to_re "ieii") (re.* re.allchar) (re.* re.allchar) re.allchar (re.* re.allchar) (str.to_re "u") re.allchar re.allchar re.allchar (re.* re.allchar) (str.to_re "mo") (re.* re.allchar) re.allchar (re.* re.allchar) (str.to_re "upppt") (re.* re.allchar) re.allchar (re.* re.allchar) (re.* re.allchar) (str.to_re "eq") (re.* re.allchar) re.allchar (re.* re.allchar) (str.to_re "sa") re.allchar (re.* re.allchar) (str.to_re "f") (re.* re.allchar) (re.* re.allchar) (str.to_re "yc") (re.* re.allchar) (str.to_re "jgdez") re.allchar (re.* re.allchar) re.allchar re.allchar re.allchar (re.* re.allchar) (re.* re.allchar) (re.* re.allchar) (str.to_re "vg") re.allchar (str.to_re "ww") re.allchar (re.* re.allchar) (re.* re.allchar) re.allchar (re.* re.allchar) (str.to_re "jz") (re.* re.allchar) re.allchar (str.to_re "g") (re.* re.allchar) (str.to_re "rya") re.allchar (str.to_re "o") (re.* re.allchar) (re.* re.allchar) re.allchar (str.to_re "rln") (re.* re.allchar) re.allchar re.allchar (str.to_re "lo") re.allchar re.allchar (str.to_re "qn") re.allchar (str.to_re "t") re.allchar (str.to_re "sd") (re.* re.allchar) (str.to_re "y") (re.* re.allchar) (str.to_re "l") re.allchar (re.* re.allchar) (str.to_re "m") (re.* re.allchar) (re.* re.allchar) (str.to_re "q") (re.* re.allchar) re.allchar re.allchar re.allchar (str.to_re "i") re.allchar re.allchar re.allchar re.allchar (str.to_re "m") re.allchar re.allchar (re.* re.allchar) re.allchar (re.* re.allchar) re.allchar (re.* re.allchar) (str.to_re "jwc") (re.* re.allchar) (str.to_re "xb") (re.* re.allchar) re.allchar (str.to_re "ob") (re.* re.allchar) (re.* re.allchar) (re.* re.allchar) re.allchar (re.* re.allchar) re.allchar re.allchar (str.to_re "y") (re.* re.allchar) (str.to_re "c") re.allchar re.allchar (str.to_re "op") re.allchar re.allchar re.allchar (re.* re.allchar) (str.to_re "m") (re.* re.allchar) re.allchar (str.to_re "v") re.allchar (re.* re.allchar) (re.* re.allchar) (str.to_re "ui") (re.* re.allchar) (re.* re.allchar) (re.* re.allchar) re.allchar (str.to_re "e") re.allchar (str.to_re "r") (re.* re.allchar) (str.to_re "g") re.allchar re.allchar (str.to_re "z") (re.* re.allchar) re.allchar re.allchar (re.* re.allchar) (re.* re.allchar) (str.to_re "v") re.allchar (re.* re.allchar) (str.to_re "jz") re.allchar (str.to_re "x") re.allchar (re.* re.allchar) (str.to_re "x") re.allchar (re.* re.allchar) (str.to_re "eu") (re.* re.allchar) re.allchar re.allchar re.allchar (str.to_re "vx") (re.* re.allchar) (str.to_re "z") re.allchar (re.* re.allchar) re.allchar (re.* re.allchar) re.allchar (re.* re.allchar) re.allchar re.allchar re.allchar (re.* re.allchar) re.allchar re.allchar (re.* re.allchar) (str.to_re "l") (re.* re.allchar) (re.* re.allchar) (re.* re.allchar) (str.to_re "f") re.allchar (str.to_re "n") (re.* re.allchar) (re.* re.allchar) re.allchar (re.* re.allchar) re.allchar (str.to_re "r") (re.* re.allchar) (str.to_re "uo") re.allchar (str.to_re "v") re.allchar re.allchar (re.* re.allchar) re.allchar re.allchar (str.to_re "t") re.allchar (re.* re.allchar) (str.to_re "jd") (re.* re.allchar) (re.* re.allchar) re.allchar (re.* re.allchar) (str.to_re "p") re.allchar (re.* re.allchar) (re.* re.allchar) (str.to_re "q") (re.* re.allchar) (re.* re.allchar) re.allchar (re.* re.allchar) (re.* re.allchar) (re.* re.allchar) (str.to_re "v") (re.* re.allchar) (re.* re.allchar) (re.* re.allchar) (str.to_re "t") re.allchar re.allchar (str.to_re "v") re.allchar re.allchar re.allchar (str.to_re "v") re.allchar (re.* re.allchar) re.allchar (re.* re.allchar) (re.* re.allchar) (str.to_re "sd") (re.* re.allchar) (str.to_re "gq") (re.* re.allchar) re.allchar (str.to_re "m") (re.* re.allchar) (re.* re.allchar) re.allchar (str.to_re "m") re.allchar re.allchar (re.* re.allchar) (re.* re.allchar) (str.to_re "c") re.allchar (str.to_re "e") re.allchar (str.to_re "ko") re.allchar (re.* re.allchar) (re.* re.allchar) (str.to_re "d") re.allchar re.allchar (str.to_re "if") (re.* re.allchar) (str.to_re "u") re.allchar re.allchar (str.to_re "om") (re.* re.allchar) (str.to_re "q") (re.* re.allchar) re.allchar (str.to_re "y") re.allchar re.allchar (str.to_re "cu") (re.* re.allchar) re.allchar (str.to_re "u") (re.* re.allchar) re.allchar (re.* re.allchar) (str.to_re "ofct") re.allchar (str.to_re "b") re.allchar (str.to_re "q") (re.* re.allchar) (re.* re.allchar) re.allchar re.allchar (str.to_re "h") re.allchar (str.to_re "n") re.allchar (str.to_re "n") re.allchar (str.to_re "uo") (re.* re.allchar) (re.* re.allchar) re.allchar (re.* re.allchar) (str.to_re "ym") (re.* re.allchar) (re.* re.allchar) re.allchar (str.to_re "ax") re.allchar (re.* re.allchar) (str.to_re "l") (re.* re.allchar) (str.to_re "ia") (re.* re.allchar) (re.* re.allchar) re.allchar (str.to_re "v") (re.* re.allchar) re.allchar (str.to_re "c") re.allchar re.allchar re.allchar (re.* re.allchar) re.allchar (re.* re.allchar) (re.* re.allchar) (str.to_re "e") (re.* re.allchar) re.allchar (str.to_re "asnif") (re.* re.allchar) (re.* re.allchar) re.allchar (str.to_re "q") (re.* re.allchar) re.allchar re.allchar (str.to_re "y") re.allchar (str.to_re "p") re.allchar (re.* re.allchar) (str.to_re "c") (re.* re.allchar) (re.* re.allchar) re.allchar re.allchar re.allchar (re.* re.allchar) re.allchar (re.* re.allchar) (str.to_re "xu") (re.* re.allchar) (re.* re.allchar) (str.to_re "s") re.allchar (re.* re.allchar) re.allchar re.allchar (str.to_re "np") re.allchar re.allchar (re.* re.allchar) (re.* re.allchar) re.allchar re.allchar (str.to_re "dyyk") (re.* re.allchar) re.allchar (re.* re.allchar) (re.* re.allchar) re.allchar (str.to_re "t") (re.* re.allchar) (str.to_re "pepjyz") (re.* re.allchar) (str.to_re "o") re.allchar re.allchar (re.* re.allchar) re.allchar re.allchar re.allchar (re.* re.allchar) (str.to_re "h") (re.* re.allchar) (str.to_re "eg") re.allchar (re.* re.allchar) (re.* re.allchar) (str.to_re "i") re.allchar (str.to_re "m") re.allchar (str.to_re "x") (re.* re.allchar) (re.* re.allchar) re.allchar re.allchar re.allchar (re.* re.allchar) (re.* re.allchar) (re.* re.allchar) (str.to_re "j") (re.* re.allchar) re.allchar (re.* re.allchar) (re.* re.allchar) (str.to_re "v") (re.* re.allchar) (re.* re.allchar) re.allchar re.allchar (str.to_re "z") (re.* re.allchar) (re.* re.allchar) (re.* re.allchar) (str.to_re "w") re.allchar (re.* re.allchar) re.allchar re.allchar (re.* re.allchar) (str.to_re "z") re.allchar re.allchar (str.to_re "i") (re.* re.allchar) (str.to_re "z") (re.* re.allchar) (re.* re.allchar) (re.* re.allchar) (str.to_re "myj") re.allchar re.allchar re.allchar (str.to_re "jg") re.allchar (re.* re.allchar) (re.* re.allchar) re.allchar (re.* re.allchar) (str.to_re "q") (re.* re.allchar) (re.* re.allchar) (str.to_re "c") (re.* re.allchar) (str.to_re "jq") (re.* re.allchar) re.allchar (str.to_re "d") (re.* re.allchar) (str.to_re "n") re.allchar re.allchar re.allchar (re.* re.allchar) (re.* re.allchar) re.allchar (str.to_re "o") re.allchar (re.* re.allchar) (re.* re.allchar) (str.to_re "myfa") re.allchar (re.* re.allchar) (re.* re.allchar) (str.to_re "w") re.allchar re.allchar re.allchar (str.to_re "f") re.allchar (str.to_re "xdwp") (re.* re.allchar) re.allchar (re.* re.allchar) (str.to_re "l") (re.* re.allchar) (re.* re.allchar) (str.to_re "a") re.allchar (str.to_re "f") re.allchar (re.* re.allchar) (re.* re.allchar) (re.* re.allchar) re.allchar (re.* re.allchar) (re.* re.allchar) re.allchar (str.to_re "zso") re.allchar re.allchar re.allchar (re.* re.allchar) (str.to_re "x") (re.* re.allchar) (re.* re.allchar) re.allchar (str.to_re "sx") (re.* re.allchar) re.allchar (re.* re.allchar) (str.to_re "e") re.allchar re.allchar re.allchar (str.to_re "x") (re.* re.allchar) (str.to_re "l") re.allchar re.allchar (str.to_re "kcp") re.allchar (str.to_re "h") (re.* re.allchar) re.allchar (str.to_re "q") re.allchar (re.* re.allchar) (re.* re.allchar) (str.to_re "sm") (re.* re.allchar) re.allchar (str.to_re "olvu") re.allchar (str.to_re "z") re.allchar (re.* re.allchar) (re.* re.allchar) (str.to_re "xq") re.allchar (str.to_re "h") (re.* re.allchar) (str.to_re "t") (re.* re.allchar) re.allchar re.allchar re.allchar (re.* re.allchar) (re.* re.allchar) (re.* re.allchar) re.allchar (str.to_re "p") (re.* re.allchar) (re.* re.allchar) re.allchar (re.* re.allchar) (re.* re.allchar) (re.* re.allchar) (re.* re.allchar) (str.to_re "kj") (re.* re.allchar) (re.* re.allchar) (str.to_re "ah") re.allchar (re.* re.allchar) re.allchar (re.* re.allchar) (str.to_re "l") (re.* re.allchar) (re.* re.allchar) re.allchar re.allchar re.allchar (str.to_re "j") (re.* re.allchar) re.allchar re.allchar (str.to_re "fo") (re.* re.allchar) (str.to_re "fc") re.allchar (str.to_re "y") re.allchar re.allchar re.allchar (re.* re.allchar) re.allchar re.allchar re.allchar re.allchar (re.* re.allchar) (str.to_re "c") re.allchar re.allchar (re.* re.allchar) (re.* re.allchar) (re.* re.allchar) (str.to_re "w") (re.* re.allchar) (re.* re.allchar) (str.to_re "v") re.allchar (str.to_re "a") (re.* re.allchar) re.allchar (str.to_re "ah") (re.* re.allchar) (str.to_re "qm") re.allchar (str.to_re "ob") re.allchar (str.to_re "b") re.allchar re.allchar (str.to_re "q") re.allchar (str.to_re "eux") (re.* re.allchar) (re.* re.allchar) (str.to_re "j") (re.* re.allchar) (str.to_re "evs") re.allchar (re.* re.allchar) re.allchar (re.* re.allchar) (str.to_re "nr") (re.* re.allchar) (re.* re.allchar) (str.to_re "avdj") (re.* re.allchar) re.allchar re.allchar re.allchar (str.to_re "e") re.allchar (str.to_re "yug") (re.* re.allchar) re.allchar (str.to_re "f") re.allchar (str.to_re "s") (re.* re.allchar) (str.to_re "p") (re.* re.allchar) (re.* re.allchar) (str.to_re "n") (re.* re.allchar) (str.to_re "hwbo") (re.* re.allchar) re.allchar (re.* re.allchar) (str.to_re "p") re.allchar (re.* re.allchar) (re.* re.allchar) re.allchar (str.to_re "b") (re.* re.allchar) (str.to_re "s") re.allchar (re.* re.allchar) (str.to_re "f") re.allchar (str.to_re "c") re.allchar (str.to_re "q") (re.* re.allchar) re.allchar re.allchar (re.* re.allchar) re.allchar (str.to_re "h") re.allchar re.allchar re.allchar re.allchar (re.* re.allchar) (re.* re.allchar) re.allchar re.allchar re.allchar (re.* re.allchar) (str.to_re "kzc") (re.* re.allchar) (re.* re.allchar) (re.* re.allchar) re.allchar (str.to_re "z") (re.* re.allchar) (str.to_re "sr") re.allchar (str.to_re "l") (re.* re.allchar) re.allchar (re.* re.allchar) (str.to_re "o") (re.* re.allchar) (str.to_re "r") re.allchar re.allchar (str.to_re "v") re.allchar (re.* re.allchar) re.allchar (re.* re.allchar) re.allchar re.allchar (re.* re.allchar) (str.to_re "w") re.allchar re.allchar (str.to_re "d") (re.* re.allchar) (re.* re.allchar) re.allchar (str.to_re "r") re.allchar (str.to_re "sis") (re.* re.allchar) re.allchar re.allchar (re.* re.allchar) re.allchar (str.to_re "bx") re.allchar (re.* re.allchar) re.allchar (str.to_re "m") (re.* re.allchar) (str.to_re "klq") (re.* re.allchar) (str.to_re "u") (re.* re.allchar) re.allchar re.allchar (re.* re.allchar) (str.to_re "a") re.allchar re.allchar (re.* re.allchar) (re.* re.allchar) (re.* re.allchar) re.allchar (re.* re.allchar) (str.to_re "q") re.allchar (str.to_re "gd") (re.* re.allchar) (str.to_re "kf") re.allchar (re.* re.allchar) re.allchar (str.to_re "b") (re.* re.allchar) (str.to_re "r") re.allchar re.allchar (str.to_re "v") re.allchar (re.* re.allchar) (str.to_re "s") re.allchar re.allchar (str.to_re "dq") re.allchar (str.to_re "w") (re.* re.allchar) (re.* re.allchar) (re.* re.allchar) re.allchar (re.* re.allchar) (str.to_re "c") (re.* re.allchar) (str.to_re "w") re.allchar (str.to_re "k") re.allchar (str.to_re "a") (re.* re.allchar) re.allchar (re.* re.allchar) (re.* re.allchar) (re.* re.allchar) re.allchar (re.* re.allchar) (str.to_re "h") (re.* re.allchar) re.allchar (str.to_re "lof") (re.* re.allchar) (re.* re.allchar) (re.* re.allchar) re.allchar re.allchar (str.to_re "d") (re.* re.allchar) (str.to_re "b") re.allchar re.allchar re.allchar (re.* re.allchar) (re.* re.allchar) re.allchar (re.* re.allchar) (re.* re.allchar) (str.to_re "qiv") (re.* re.allchar) (re.* re.allchar) (str.to_re "i") re.allchar (str.to_re "ba") re.allchar re.allchar (re.* re.allchar) re.allchar re.allchar (re.* re.allchar) re.allchar (re.* re.allchar) re.allchar re.allchar re.allchar (str.to_re "ao") (re.* re.allchar) (str.to_re "r") re.allchar re.allchar (re.* re.allchar) re.allchar (str.to_re "k") re.allchar (re.* re.allchar) (re.* re.allchar) (re.* re.allchar) (str.to_re "vx") (re.* re.allchar) (re.* re.allchar) (re.* re.allchar) (re.* re.allchar) (str.to_re "j") (re.* re.allchar) re.allchar re.allchar (str.to_re "faa") (re.* re.allchar) re.allchar re.allchar (re.* re.allchar) (str.to_re "v") re.allchar re.allchar (str.to_re "sk") re.allchar (str.to_re "k") re.allchar re.allchar (str.to_re "tgc") (re.* re.allchar) re.allchar re.allchar re.allchar (str.to_re "xlm") (re.* re.allchar) re.allchar (str.to_re "wf") re.allchar (str.to_re "m") (re.* re.allchar) (re.* re.allchar) (re.* re.allchar) re.allchar re.allchar (str.to_re "n") (re.* re.allchar) re.allchar (str.to_re "nh") (re.* re.allchar) (str.to_re "w") re.allchar (re.* re.allchar) )   (re.++ (str.to_re "sxizuq") re.allchar (str.to_re "ie") (re.* re.allchar) (str.to_re "rfu") (re.* re.allchar) (re.* re.allchar) (str.to_re "i") re.allchar re.allchar (re.* re.allchar) re.allchar (str.to_re "m") re.allchar (re.* re.allchar) re.allchar re.allchar (re.* re.allchar) (str.to_re "t") re.allchar (re.* re.allchar) re.allchar (re.* re.allchar) (re.* re.allchar) (str.to_re "h") re.allchar re.allchar (re.* re.allchar) re.allchar re.allchar re.allchar (str.to_re "k") re.allchar re.allchar re.allchar (str.to_re "a") re.allchar (re.* re.allchar) (str.to_re "nz") re.allchar (re.* re.allchar) re.allchar (re.* re.allchar) (re.* re.allchar) (re.* re.allchar) re.allchar (str.to_re "e") (re.* re.allchar) (str.to_re "z") (re.* re.allchar) re.allchar (re.* re.allchar) (str.to_re "o") (re.* re.allchar) re.allchar (re.* re.allchar) (str.to_re "p") re.allchar (re.* re.allchar) (str.to_re "n") (re.* re.allchar) (str.to_re "s") (re.* re.allchar) (re.* re.allchar) re.allchar (str.to_re "x") re.allchar (re.* re.allchar) re.allchar re.allchar (re.* re.allchar) (re.* re.allchar) (str.to_re "yab") (re.* re.allchar) re.allchar (str.to_re "xg") re.allchar (re.* re.allchar) re.allchar (str.to_re "lndq") re.allchar (re.* re.allchar) re.allchar re.allchar (re.* re.allchar) (re.* re.allchar) re.allchar (str.to_re "j") re.allchar (str.to_re "z") (re.* re.allchar) (re.* re.allchar) (str.to_re "m") (re.* re.allchar) (str.to_re "aqh") re.allchar (str.to_re "k") re.allchar re.allchar (re.* re.allchar) (re.* re.allchar) (str.to_re "e") (re.* re.allchar) re.allchar (str.to_re "i") re.allchar re.allchar (str.to_re "b") (re.* re.allchar) (re.* re.allchar) re.allchar re.allchar re.allchar (str.to_re "r") (re.* re.allchar) re.allchar (str.to_re "wcxbx") re.allchar (re.* re.allchar) (str.to_re "b") re.allchar re.allchar (re.* re.allchar) (re.* re.allchar) re.allchar re.allchar (str.to_re "f") re.allchar (re.* re.allchar) (re.* re.allchar) re.allchar re.allchar (re.* re.allchar) (str.to_re "p") (re.* re.allchar) (re.* re.allchar) re.allchar (str.to_re "p") re.allchar re.allchar (re.* re.allchar) (re.* re.allchar) (re.* re.allchar) (str.to_re "z") re.allchar (re.* re.allchar) (re.* re.allchar) (re.* re.allchar) (str.to_re "s") re.allchar (re.* re.allchar) re.allchar (str.to_re "t") (re.* re.allchar) (re.* re.allchar) (str.to_re "wh") re.allchar re.allchar (re.* re.allchar) (re.* re.allchar) (str.to_re "r") re.allchar re.allchar re.allchar re.allchar (str.to_re "qze") (re.* re.allchar) (re.* re.allchar) re.allchar (re.* re.allchar) (str.to_re "zi") re.allchar (re.* re.allchar) (str.to_re "vna") (re.* re.allchar) (str.to_re "j") re.allchar (re.* re.allchar) (str.to_re "xf") (re.* re.allchar) re.allchar re.allchar re.allchar (re.* re.allchar) (str.to_re "v") re.allchar re.allchar (re.* re.allchar) (str.to_re "sl") re.allchar re.allchar re.allchar (str.to_re "l") re.allchar (str.to_re "ecx") re.allchar (re.* re.allchar) (re.* re.allchar) re.allchar re.allchar (re.* re.allchar) (str.to_re "nj") (re.* re.allchar) (str.to_re "b") re.allchar re.allchar (re.* re.allchar) (re.* re.allchar) re.allchar (re.* re.allchar) re.allchar (re.* re.allchar) (str.to_re "h") re.allchar re.allchar re.allchar (str.to_re "b") (re.* re.allchar) (str.to_re "jd") (re.* re.allchar) (str.to_re "yom") re.allchar (re.* re.allchar) re.allchar re.allchar re.allchar re.allchar (str.to_re "yh") re.allchar (str.to_re "ypw") re.allchar (str.to_re "o") (re.* re.allchar) (re.* re.allchar) (re.* re.allchar) (re.* re.allchar) (str.to_re "g") (re.* re.allchar) (str.to_re "q") re.allchar (str.to_re "d") re.allchar (re.* re.allchar) re.allchar (str.to_re "i") re.allchar re.allchar re.allchar (re.* re.allchar) (re.* re.allchar) re.allchar (str.to_re "ko") (re.* re.allchar) re.allchar (re.* re.allchar) re.allchar (str.to_re "o") re.allchar (str.to_re "o") (re.* re.allchar) (re.* re.allchar) re.allchar re.allchar re.allchar (str.to_re "i") (re.* re.allchar) (str.to_re "xu") re.allchar (str.to_re "po") (re.* re.allchar) (re.* re.allchar) re.allchar re.allchar re.allchar (re.* re.allchar) (str.to_re "qm") re.allchar re.allchar re.allchar (str.to_re "w") re.allchar re.allchar (re.* re.allchar) (str.to_re "hux") re.allchar re.allchar re.allchar (str.to_re "o") (re.* re.allchar) re.allchar re.allchar (str.to_re "t") re.allchar re.allchar (re.* re.allchar) (str.to_re "q") re.allchar re.allchar (str.to_re "h") re.allchar (str.to_re "nx") re.allchar (str.to_re "eu") re.allchar (str.to_re "vvl") (re.* re.allchar) re.allchar re.allchar (re.* re.allchar) (str.to_re "x") re.allchar (re.* re.allchar) (re.* re.allchar) (re.* re.allchar) (str.to_re "cm") (re.* re.allchar) re.allchar re.allchar (str.to_re "k") (re.* re.allchar) (re.* re.allchar) re.allchar (re.* re.allchar) (re.* re.allchar) (str.to_re "hi") (re.* re.allchar) (re.* re.allchar) re.allchar (str.to_re "i") (re.* re.allchar) (re.* re.allchar) re.allchar (str.to_re "m") re.allchar re.allchar re.allchar (re.* re.allchar) (re.* re.allchar) (str.to_re "c") (re.* re.allchar) (str.to_re "z") (re.* re.allchar) (str.to_re "s") (re.* re.allchar) re.allchar (re.* re.allchar) (re.* re.allchar) re.allchar (re.* re.allchar) re.allchar (re.* re.allchar) (str.to_re "jn") re.allchar re.allchar (str.to_re "f") re.allchar (str.to_re "edy") (re.* re.allchar) (str.to_re "y") re.allchar (re.* re.allchar) (str.to_re "ciexnt") re.allchar (re.* re.allchar) (str.to_re "e") re.allchar (re.* re.allchar) (re.* re.allchar) re.allchar (re.* re.allchar) (re.* re.allchar) (str.to_re "l") re.allchar (re.* re.allchar) re.allchar (re.* re.allchar) re.allchar re.allchar re.allchar re.allchar re.allchar (re.* re.allchar) (str.to_re "gj") (re.* re.allchar) re.allchar re.allchar re.allchar (str.to_re "j") re.allchar re.allchar re.allchar (re.* re.allchar) (str.to_re "s") (re.* re.allchar) (re.* re.allchar) re.allchar re.allchar re.allchar (re.* re.allchar) (re.* re.allchar) (re.* re.allchar) (str.to_re "gi") (re.* re.allchar) (re.* re.allchar) (str.to_re "azbn") re.allchar (re.* re.allchar) (str.to_re "n") (re.* re.allchar) re.allchar (re.* re.allchar) re.allchar (str.to_re "t") (re.* re.allchar) (re.* re.allchar) (re.* re.allchar) (str.to_re "j") (re.* re.allchar) re.allchar (re.* re.allchar) (re.* re.allchar) (str.to_re "l") (re.* re.allchar) re.allchar re.allchar re.allchar (re.* re.allchar) (str.to_re "m") (re.* re.allchar) (str.to_re "j") re.allchar (re.* re.allchar) re.allchar re.allchar (re.* re.allchar) re.allchar (str.to_re "nb") (re.* re.allchar) re.allchar re.allchar re.allchar (re.* re.allchar) re.allchar (re.* re.allchar) re.allchar re.allchar (re.* re.allchar) (re.* re.allchar) re.allchar re.allchar (re.* re.allchar) re.allchar (str.to_re "irf") (re.* re.allchar) (re.* re.allchar) (str.to_re "zz") (re.* re.allchar) (re.* re.allchar) re.allchar re.allchar (str.to_re "m") re.allchar (re.* re.allchar) (re.* re.allchar) (re.* re.allchar) re.allchar re.allchar re.allchar (re.* re.allchar) re.allchar re.allchar (str.to_re "w") re.allchar (str.to_re "s") re.allchar (str.to_re "pe") re.allchar re.allchar (re.* re.allchar) (str.to_re "n") re.allchar re.allchar (str.to_re "a") re.allchar (str.to_re "k") (re.* re.allchar) (str.to_re "c") re.allchar (str.to_re "the") re.allchar re.allchar re.allchar re.allchar (re.* re.allchar) (str.to_re "smz") re.allchar (str.to_re "o") (re.* re.allchar) re.allchar (re.* re.allchar) (str.to_re "v") (re.* re.allchar) re.allchar (str.to_re "s") re.allchar (str.to_re "f") (re.* re.allchar) (str.to_re "l") (re.* re.allchar) re.allchar re.allchar (str.to_re "l") (re.* re.allchar) (re.* re.allchar) re.allchar re.allchar re.allchar (str.to_re "z") (re.* re.allchar) re.allchar (re.* re.allchar) (str.to_re "pk") (re.* re.allchar) (str.to_re "e") re.allchar (str.to_re "n") re.allchar re.allchar (str.to_re "ek") (re.* re.allchar) re.allchar (str.to_re "ka") re.allchar re.allchar (str.to_re "v") (re.* re.allchar) re.allchar (re.* re.allchar) (str.to_re "t") (re.* re.allchar) re.allchar (re.* re.allchar) (str.to_re "j") re.allchar (re.* re.allchar) re.allchar (str.to_re "om") re.allchar (str.to_re "f") (re.* re.allchar) re.allchar (re.* re.allchar) re.allchar (str.to_re "d") (re.* re.allchar) (str.to_re "g") re.allchar re.allchar (re.* re.allchar) re.allchar re.allchar (re.* re.allchar) re.allchar (str.to_re "t") re.allchar re.allchar (re.* re.allchar) re.allchar (re.* re.allchar) re.allchar re.allchar (re.* re.allchar) (str.to_re "vl") re.allchar re.allchar (str.to_re "a") re.allchar (re.* re.allchar) (re.* re.allchar) (re.* re.allchar) re.allchar (str.to_re "so") re.allchar re.allchar (str.to_re "bu") (re.* re.allchar) (re.* re.allchar) re.allchar (str.to_re "qg") (re.* re.allchar) (re.* re.allchar) (str.to_re "u") re.allchar (str.to_re "je") re.allchar (re.* re.allchar) re.allchar re.allchar re.allchar (re.* re.allchar) (re.* re.allchar) (re.* re.allchar) (str.to_re "v") (re.* re.allchar) re.allchar re.allchar re.allchar (re.* re.allchar) re.allchar re.allchar (str.to_re "y") re.allchar (str.to_re "gkfs") (re.* re.allchar) (str.to_re "p") re.allchar (re.* re.allchar) re.allchar re.allchar (re.* re.allchar) (str.to_re "hw") (re.* re.allchar) re.allchar (str.to_re "o") (re.* re.allchar) (str.to_re "p") re.allchar (re.* re.allchar) (str.to_re "j") re.allchar re.allchar (str.to_re "b") (re.* re.allchar) (str.to_re "sg") (re.* re.allchar) re.allchar (str.to_re "a") re.allchar re.allchar (str.to_re "eios") (re.* re.allchar) (str.to_re "h") (re.* re.allchar) (re.* re.allchar) (re.* re.allchar) (re.* re.allchar) re.allchar (re.* re.allchar) (str.to_re "f") re.allchar re.allchar (re.* re.allchar) re.allchar re.allchar re.allchar (str.to_re "f") re.allchar (str.to_re "d") re.allchar (re.* re.allchar) (str.to_re "hln") re.allchar re.allchar (str.to_re "rzgv") re.allchar (re.* re.allchar) (str.to_re "id") (re.* re.allchar) re.allchar re.allchar re.allchar (str.to_re "d") (re.* re.allchar) (str.to_re "ow") re.allchar (str.to_re "o") re.allchar re.allchar (re.* re.allchar) (str.to_re "f") re.allchar (str.to_re "kl") (re.* re.allchar) re.allchar (re.* re.allchar) (str.to_re "uy") re.allchar (re.* re.allchar) (re.* re.allchar) (str.to_re "s") re.allchar (str.to_re "d") re.allchar (str.to_re "pw") re.allchar re.allchar (re.* re.allchar) re.allchar re.allchar re.allchar re.allchar (str.to_re "k") re.allchar (str.to_re "ghy") re.allchar re.allchar (re.* re.allchar) (re.* re.allchar) (re.* re.allchar) re.allchar (re.* re.allchar) re.allchar (str.to_re "c") (re.* re.allchar) (str.to_re "j") (re.* re.allchar) (re.* re.allchar) (str.to_re "dqow") (re.* re.allchar) (str.to_re "e") re.allchar (re.* re.allchar) re.allchar (str.to_re "c") re.allchar (re.* re.allchar) re.allchar (re.* re.allchar) (re.* re.allchar) re.allchar re.allchar (re.* re.allchar) (re.* re.allchar) (str.to_re "epue") (re.* re.allchar) (re.* re.allchar) re.allchar re.allchar (re.* re.allchar) (re.* re.allchar) (str.to_re "q") re.allchar re.allchar (re.* re.allchar) (str.to_re "f") re.allchar (str.to_re "vk") (re.* re.allchar) re.allchar (str.to_re "t") (re.* re.allchar) (re.* re.allchar) (str.to_re "dubh") re.allchar (str.to_re "o") re.allchar (str.to_re "yf") (re.* re.allchar) (re.* re.allchar) (re.* re.allchar) (str.to_re "w") (re.* re.allchar) (re.* re.allchar) (str.to_re "vaj") re.allchar (str.to_re "g") re.allchar (str.to_re "ax") (re.* re.allchar) re.allchar (str.to_re "k") re.allchar re.allchar (re.* re.allchar) (str.to_re "or") re.allchar re.allchar re.allchar (str.to_re "kb") re.allchar re.allchar (str.to_re "pv") (re.* re.allchar) (str.to_re "fvxjf") (re.* re.allchar) (str.to_re "y") re.allchar (re.* re.allchar) re.allchar (re.* re.allchar) (str.to_re "c") re.allchar re.allchar (str.to_re "cv") (re.* re.allchar) (str.to_re "f") re.allchar (re.* re.allchar) (str.to_re "k") re.allchar (str.to_re "kc") (re.* re.allchar) (str.to_re "itgc") (re.* re.allchar) (re.* re.allchar) (re.* re.allchar) (re.* re.allchar) re.allchar (str.to_re "h") re.allchar re.allchar (re.* re.allchar) (str.to_re "x") (re.* re.allchar) re.allchar re.allchar (re.* re.allchar) (re.* re.allchar) (re.* re.allchar) (str.to_re "v") (re.* re.allchar) re.allchar (re.* re.allchar) (str.to_re "o") re.allchar (str.to_re "v") )  )))
(check-sat)
(exit)
